c instance by G2
c solution = 00011010100000001
c Known solution cost is 1024 
p cnf 17 30
w 31 56 99 1 94 87 53 60 82 31 85 39 98 93 58 41 16
1 -7 -14 0
-6 -11 13 0
1 16 7 0
2 -13 17 0
3 14 -15 0
-1 -9 -5 0
-9 12 -2 0
9 8 5 0
-11 3 -2 0
-15 -9 1 0
-17 -10 15 0
-8 10 3 0
-11 -5 1 0
17 7 2 0
3 8 -16 0
17 12 2 0
-4 9 -5 0
-17 5 16 0
13 -15 6 0
6 16 -13 0
12 -16 -15 0
-14 -9 13 0
-6 3 -4 0
-13 -10 -7 0
4 6 3 0
13 -3 -17 0
-17 16 9 0
-14 -3 15 0
-12 3 -9 0
3 2 -15 0
